(declare-fun tobool.not.i.i_19_47 () (_ BitVec 1))
(declare-fun or.cond81.i_19_56 () (_ BitVec 1))
(declare-fun cmp116.not.i_19_88 () (_ BitVec 1))
(declare-fun cmp.i.i.i1072.i_19_184 () (_ BitVec 1))
(declare-fun cmp.i1.i.i.i_19_187 () (_ BitVec 1))
(declare-fun if.then.i.i1075.i_zext_32_to_64.exit.i_19_228 () Bool)
(declare-fun if.else.i.i1076.i_zext_32_to_64.exit.i_19_227 () Bool)
(declare-fun dst_reg_19_208 () (_ BitVec 8))
(declare-fun dst_reg_19_153 () (_ BitVec 8))
(declare-fun dst_reg_19_207 () (_ BitVec 32))
(declare-fun dst_reg_19_152 () (_ BitVec 32))
(declare-fun dst_reg_19_206 () (_ BitVec 32))
(declare-fun dst_reg_19_151 () (_ BitVec 32))
(declare-fun dst_reg_19_205 () (_ BitVec 32))
(declare-fun dst_reg_19_150 () (_ BitVec 32))
(declare-fun dst_reg_19_204 () (_ BitVec 32))
(declare-fun dst_reg_19_149 () (_ BitVec 32))
(declare-fun dst_reg_19_203 () (_ BitVec 32))
(declare-fun dst_reg_19_148 () (_ BitVec 32))
(declare-fun dst_reg_19_202 () (_ BitVec 32))
(declare-fun dst_reg_19_147 () (_ BitVec 32))
(declare-fun dst_reg_19_201 () (_ BitVec 32))
(declare-fun dst_reg_19_146 () (_ BitVec 32))
(declare-fun dst_reg_19_200 () (_ BitVec 64))
(declare-fun conv1.i.i.i_19_181 () (_ BitVec 64))
(declare-fun dst_reg_19_199 () (_ BitVec 64))
(declare-fun conv.i.i1065.i_19_179 () (_ BitVec 64))
(declare-fun dst_reg_19_198 () (_ BitVec 64))
(declare-fun dst_reg_19_143 () (_ BitVec 64))
(declare-fun dst_reg_19_197 () (_ BitVec 64))
(declare-fun dst_reg_19_196 () (_ BitVec 64))
(declare-fun and6.i.i.i1060.i_19_177 () (_ BitVec 64))
(declare-fun dst_reg_19_195 () (_ BitVec 64))
(declare-fun and.i.i.i1059.i_19_175 () (_ BitVec 64))
(declare-fun dst_reg_19_194 () (_ BitVec 32))
(declare-fun dst_reg_19_139 () (_ BitVec 32))
(declare-fun dst_reg_19_193 () (_ BitVec 32))
(declare-fun dst_reg_19_138 () (_ BitVec 32))
(declare-fun dst_reg_19_192 () (_ BitVec 32))
(declare-fun dst_reg_19_137 () (_ BitVec 32))
(declare-fun dst_reg_19_191 () (_ BitVec 32))
(declare-fun dst_reg_19_136 () (_ BitVec 32))
(declare-fun src_reg_19_226 () (_ BitVec 8))
(declare-fun src_reg_19_171 () (_ BitVec 8))
(declare-fun src_reg_19_225 () (_ BitVec 32))
(declare-fun src_reg_19_170 () (_ BitVec 32))
(declare-fun src_reg_19_224 () (_ BitVec 32))
(declare-fun src_reg_19_169 () (_ BitVec 32))
(declare-fun src_reg_19_223 () (_ BitVec 32))
(declare-fun src_reg_19_168 () (_ BitVec 32))
(declare-fun src_reg_19_222 () (_ BitVec 32))
(declare-fun src_reg_19_167 () (_ BitVec 32))
(declare-fun src_reg_19_221 () (_ BitVec 32))
(declare-fun src_reg_19_166 () (_ BitVec 32))
(declare-fun src_reg_19_220 () (_ BitVec 32))
(declare-fun src_reg_19_165 () (_ BitVec 32))
(declare-fun src_reg_19_219 () (_ BitVec 32))
(declare-fun src_reg_19_164 () (_ BitVec 32))
(declare-fun src_reg_19_218 () (_ BitVec 64))
(declare-fun src_reg_19_163 () (_ BitVec 64))
(declare-fun src_reg_19_217 () (_ BitVec 64))
(declare-fun src_reg_19_162 () (_ BitVec 64))
(declare-fun src_reg_19_216 () (_ BitVec 64))
(declare-fun src_reg_19_161 () (_ BitVec 64))
(declare-fun src_reg_19_215 () (_ BitVec 64))
(declare-fun src_reg_19_160 () (_ BitVec 64))
(declare-fun src_reg_19_214 () (_ BitVec 64))
(declare-fun src_reg_19_159 () (_ BitVec 64))
(declare-fun src_reg_19_213 () (_ BitVec 64))
(declare-fun src_reg_19_158 () (_ BitVec 64))
(declare-fun src_reg_19_212 () (_ BitVec 32))
(declare-fun src_reg_19_157 () (_ BitVec 32))
(declare-fun src_reg_19_211 () (_ BitVec 32))
(declare-fun src_reg_19_156 () (_ BitVec 32))
(declare-fun src_reg_19_210 () (_ BitVec 32))
(declare-fun src_reg_19_155 () (_ BitVec 32))
(declare-fun src_reg_19_209 () (_ BitVec 32))
(declare-fun src_reg_19_154 () (_ BitVec 32))
(declare-fun conv6.i.i.i_19_188 () (_ BitVec 64))
(declare-fun conv8.i.i.i_19_189 () (_ BitVec 64))
(declare-fun .sink.i.i1077.i_19_229 () (_ BitVec 64))
(declare-fun i14.i.i.i_19_185 () (_ BitVec 32))
(declare-fun and6.i.i.i.i_19_45 () (_ BitVec 64))
(declare-fun src_reg1.sroa.13.0.copyload_19_43 () (_ BitVec 64))
(declare-fun src_reg_19_23 () (_ BitVec 64))
(declare-fun src_reg1.sroa.70.0.copyload_19_42 () (_ BitVec 32))
(declare-fun src_reg_19_31 () (_ BitVec 32))
(declare-fun src_reg1.sroa.62.0.copyload_19_41 () (_ BitVec 32))
(declare-fun src_reg_19_30 () (_ BitVec 32))
(declare-fun src_reg1.sroa.59.0.copyload_19_40 () (_ BitVec 32))
(declare-fun src_reg_19_29 () (_ BitVec 32))
(declare-fun src_reg1.sroa.52.0.copyload_19_39 () (_ BitVec 32))
(declare-fun src_reg_19_28 () (_ BitVec 32))
(declare-fun src_reg1.sroa.45.0.copyload_19_38 () (_ BitVec 64))
(declare-fun src_reg_19_27 () (_ BitVec 64))
(declare-fun src_reg_19_35 () (_ BitVec 8))
(declare-fun src_reg_19_34 () (_ BitVec 32))
(declare-fun src_reg_19_33 () (_ BitVec 32))
(declare-fun src_reg_19_32 () (_ BitVec 32))
(declare-fun src_reg_19_26 () (_ BitVec 64))
(declare-fun src_reg_19_25 () (_ BitVec 64))
(declare-fun src_reg_19_24 () (_ BitVec 64))
(declare-fun src_reg_19_22 () (_ BitVec 64))
(declare-fun src_reg_19_21 () (_ BitVec 32))
(declare-fun src_reg_19_20 () (_ BitVec 32))
(declare-fun src_reg_19_19 () (_ BitVec 32))
(declare-fun src_reg_19_18 () (_ BitVec 32))
(declare-fun dst_reg_19_17 () (_ BitVec 8))
(declare-fun dst_reg_19_16 () (_ BitVec 32))
(declare-fun dst_reg_19_15 () (_ BitVec 32))
(declare-fun dst_reg_19_14 () (_ BitVec 32))
(declare-fun dst_reg_19_13 () (_ BitVec 32))
(declare-fun dst_reg_19_12 () (_ BitVec 32))
(declare-fun dst_reg_19_11 () (_ BitVec 32))
(declare-fun dst_reg_19_10 () (_ BitVec 32))
(declare-fun dst_reg_19_9 () (_ BitVec 64))
(declare-fun dst_reg_19_8 () (_ BitVec 64))
(declare-fun dst_reg_19_7 () (_ BitVec 64))
(declare-fun dst_reg_19_6 () (_ BitVec 64))
(declare-fun dst_reg_19_5 () (_ BitVec 64))
(declare-fun dst_reg_19_4 () (_ BitVec 64))
(declare-fun dst_reg_19_3 () (_ BitVec 32))
(declare-fun dst_reg_19_2 () (_ BitVec 32))
(declare-fun dst_reg_19_1 () (_ BitVec 32))
(declare-fun dst_reg_19_0 () (_ BitVec 32))
(declare-fun dst_reg_19_145 () (_ BitVec 64))
(declare-fun dst_reg_19_144 () (_ BitVec 64))
(declare-fun dst_reg_19_142 () (_ BitVec 64))
(declare-fun dst_reg_19_141 () (_ BitVec 64))
(declare-fun dst_reg_19_140 () (_ BitVec 64))
(declare-fun cond36.i.i819.i_19_135 () (_ BitVec 32))
(declare-fun cond24.i.i813.i_19_131 () (_ BitVec 32))
(declare-fun conv7.i.i806.i_19_128 () (_ BitVec 32))
(declare-fun conv.i.i799.i_19_124 () (_ BitVec 32))
(declare-fun shr5.i.i778.i_19_112 () (_ BitVec 64))
(declare-fun shr.i.i777.i_19_111 () (_ BitVec 64))
(declare-fun i13.i.i1071.i_19_182 () (_ BitVec 32))
(declare-fun i12.i.i1068.i_19_180 () (_ BitVec 32))
(declare-fun i.i.i1064.i_19_178 () (_ BitVec 32))
(declare-fun i6.i1058.i_19_173 () (_ BitVec 64))
(declare-fun i4.i.i_19_172 () (_ BitVec 64))
(declare-fun conv29.i.i817.i_19_133 () (_ BitVec 32))
(declare-fun shr5.i.i_19_116 () (_ BitVec 32))
(declare-fun cmp31.i.i818.i_19_134 () (_ BitVec 1))
(declare-fun and.i.i.i.i791.i33_19_132 () (_ BitVec 64))
(declare-fun conv17.i.i811.i_19_129 () (_ BitVec 32))
(declare-fun shr.i.i_19_114 () (_ BitVec 32))
(declare-fun cmp19.i.i812.i_19_130 () (_ BitVec 1))
(declare-fun or6.i.i805.i_19_127 () (_ BitVec 64))
(declare-fun and5.i.i804.i_19_126 () (_ BitVec 64))
(declare-fun or.i.i798.i_19_123 () (_ BitVec 64))
(declare-fun and.i.i797.i_19_122 () (_ BitVec 64))
(declare-fun i21.i782.i_19_115 () (_ BitVec 32))
(declare-fun i20.i781.i_19_113 () (_ BitVec 32))
(declare-fun sh_prom.i.i776.i_19_110 () (_ BitVec 64))
(declare-fun and6.i.i.i766.i_19_105 () (_ BitVec 64))
(declare-fun and.i.i.i765.i_19_103 () (_ BitVec 64))
(declare-fun i_19_109 () (_ BitVec 32))
(declare-fun i13.i764.i_19_101 () (_ BitVec 64))
(declare-fun i11.i762.i_19_100 () (_ BitVec 64))
(declare-fun cmp24.old.i_19_58 () (_ BitVec 1))
(declare-fun or.cond82.i_19_60 () (_ BitVec 1))
(declare-fun cmp21.old.i_19_57 () (_ BitVec 1))
(declare-fun cmp24.i_19_54 () (_ BitVec 1))
(declare-fun or.cond80.i_19_53 () (_ BitVec 1))
(declare-fun or.cond79.i_19_51 () (_ BitVec 1))
(declare-fun cmp21.i_19_52 () (_ BitVec 1))
(declare-fun cmp18.not.i_19_49 () (_ BitVec 1))
(declare-fun cmp16.not.i_19_48 () (_ BitVec 1))
(declare-fun src_reg_19_302 () (_ BitVec 8))
(declare-fun src_reg_19_266 () (_ BitVec 8))
(declare-fun src_reg_19_301 () (_ BitVec 32))
(declare-fun src_reg_19_265 () (_ BitVec 32))
(declare-fun src_reg_19_300 () (_ BitVec 32))
(declare-fun src_reg_19_264 () (_ BitVec 32))
(declare-fun src_reg_19_299 () (_ BitVec 32))
(declare-fun src_reg_19_263 () (_ BitVec 32))
(declare-fun src_reg_19_298 () (_ BitVec 32))
(declare-fun src_reg_19_262 () (_ BitVec 32))
(declare-fun src_reg_19_297 () (_ BitVec 32))
(declare-fun src_reg_19_261 () (_ BitVec 32))
(declare-fun src_reg_19_296 () (_ BitVec 32))
(declare-fun src_reg_19_260 () (_ BitVec 32))
(declare-fun src_reg_19_295 () (_ BitVec 32))
(declare-fun src_reg_19_259 () (_ BitVec 32))
(declare-fun src_reg_19_294 () (_ BitVec 64))
(declare-fun src_reg_19_258 () (_ BitVec 64))
(declare-fun src_reg_19_293 () (_ BitVec 64))
(declare-fun src_reg_19_257 () (_ BitVec 64))
(declare-fun src_reg_19_292 () (_ BitVec 64))
(declare-fun src_reg_19_256 () (_ BitVec 64))
(declare-fun src_reg_19_291 () (_ BitVec 64))
(declare-fun src_reg_19_255 () (_ BitVec 64))
(declare-fun src_reg_19_290 () (_ BitVec 64))
(declare-fun src_reg_19_254 () (_ BitVec 64))
(declare-fun src_reg_19_289 () (_ BitVec 64))
(declare-fun src_reg_19_253 () (_ BitVec 64))
(declare-fun src_reg_19_288 () (_ BitVec 32))
(declare-fun src_reg_19_252 () (_ BitVec 32))
(declare-fun src_reg_19_287 () (_ BitVec 32))
(declare-fun src_reg_19_251 () (_ BitVec 32))
(declare-fun src_reg_19_286 () (_ BitVec 32))
(declare-fun src_reg_19_250 () (_ BitVec 32))
(declare-fun src_reg_19_285 () (_ BitVec 32))
(declare-fun src_reg_19_249 () (_ BitVec 32))
(declare-fun dst_reg_19_284 () (_ BitVec 8))
(declare-fun dst_reg_19_248 () (_ BitVec 8))
(declare-fun dst_reg_19_283 () (_ BitVec 32))
(declare-fun dst_reg_19_247 () (_ BitVec 32))
(declare-fun dst_reg_19_282 () (_ BitVec 32))
(declare-fun dst_reg_19_246 () (_ BitVec 32))
(declare-fun dst_reg_19_281 () (_ BitVec 32))
(declare-fun dst_reg_19_245 () (_ BitVec 32))
(declare-fun dst_reg_19_280 () (_ BitVec 32))
(declare-fun dst_reg_19_244 () (_ BitVec 32))
(declare-fun dst_reg_19_279 () (_ BitVec 32))
(declare-fun dst_reg_19_243 () (_ BitVec 32))
(declare-fun dst_reg_19_278 () (_ BitVec 32))
(declare-fun dst_reg_19_242 () (_ BitVec 32))
(declare-fun dst_reg_19_277 () (_ BitVec 32))
(declare-fun dst_reg_19_241 () (_ BitVec 32))
(declare-fun dst_reg_19_276 () (_ BitVec 64))
(declare-fun dst_reg_19_240 () (_ BitVec 64))
(declare-fun dst_reg_19_275 () (_ BitVec 64))
(declare-fun dst_reg_19_239 () (_ BitVec 64))
(declare-fun dst_reg_19_274 () (_ BitVec 64))
(declare-fun dst_reg_19_238 () (_ BitVec 64))
(declare-fun dst_reg_19_273 () (_ BitVec 64))
(declare-fun dst_reg_19_237 () (_ BitVec 64))
(declare-fun dst_reg_19_272 () (_ BitVec 64))
(declare-fun dst_reg_19_236 () (_ BitVec 64))
(declare-fun dst_reg_19_271 () (_ BitVec 64))
(declare-fun dst_reg_19_235 () (_ BitVec 64))
(declare-fun dst_reg_19_270 () (_ BitVec 32))
(declare-fun dst_reg_19_234 () (_ BitVec 32))
(declare-fun dst_reg_19_269 () (_ BitVec 32))
(declare-fun dst_reg_19_233 () (_ BitVec 32))
(declare-fun dst_reg_19_268 () (_ BitVec 32))
(declare-fun dst_reg_19_232 () (_ BitVec 32))
(declare-fun dst_reg_19_267 () (_ BitVec 32))
(declare-fun dst_reg_19_231 () (_ BitVec 32))
(assert (let ((a!1 (and (= cmp116.not.i_19_88 #b1)
                (and (= or.cond81.i_19_56 #b0) (= tobool.not.i.i_19_47 #b1))))
      (a!2 (and (= cmp116.not.i_19_88 #b0)
                (and (= or.cond81.i_19_56 #b0) (= tobool.not.i.i_19_47 #b1))))
      (a!5 (or (and (= or.cond82.i_19_60 #b1) (= tobool.not.i.i_19_47 #b0))
               (and (= or.cond81.i_19_56 #b1) (= tobool.not.i.i_19_47 #b1))))
      (a!6 (and (= #x00000001 src_reg_19_249)
                (= src_reg_19_19 src_reg_19_250)
                (= src_reg_19_20 src_reg_19_251)
                (= src_reg_19_21 src_reg_19_252)
                (= src_reg_19_22 src_reg_19_253)
                (= src_reg_19_23 src_reg_19_254)
                (= src_reg_19_24 src_reg_19_255)
                (= src_reg_19_25 src_reg_19_256)
                (= src_reg_19_26 src_reg_19_257)
                (= src_reg_19_27 src_reg_19_258)
                (= src_reg_19_28 src_reg_19_259)
                (= src_reg_19_29 src_reg_19_260)
                (= src_reg_19_30 src_reg_19_261)
                (= src_reg_19_31 src_reg_19_262)
                (= src_reg_19_32 src_reg_19_263)
                (= src_reg_19_33 src_reg_19_264)
                (= src_reg_19_34 src_reg_19_265)
                (= src_reg_19_35 src_reg_19_266)
                (= #x00000001 dst_reg_19_231)
                (= dst_reg_19_1 dst_reg_19_232)
                (= dst_reg_19_2 dst_reg_19_233)
                (= dst_reg_19_3 dst_reg_19_234)
                (= #x0000000000000000 dst_reg_19_235)
                (= #xffffffffffffffff dst_reg_19_236)
                (= #x8000000000000000 dst_reg_19_237)
                (= #x7fffffffffffffff dst_reg_19_238)
                (= #x0000000000000000 dst_reg_19_239)
                (= #xffffffffffffffff dst_reg_19_240)
                (= #x80000000 dst_reg_19_241)
                (= #x7fffffff dst_reg_19_242)
                (= #x00000000 dst_reg_19_243)
                (= #xffffffff dst_reg_19_244)
                (= #x00000000 dst_reg_19_245)
                (= dst_reg_19_15 dst_reg_19_246)
                (= dst_reg_19_16 dst_reg_19_247)
                (= #x01 dst_reg_19_248)))
      (a!9 (=> (= tobool.not.i.i_19_47 #b1)
               (and (ite (distinct src_reg1.sroa.52.0.copyload_19_39
                                   src_reg1.sroa.59.0.copyload_19_40)
                         (= cmp16.not.i_19_48 #b1)
                         (= cmp16.not.i_19_48 #b0))
                    (ite (distinct src_reg1.sroa.62.0.copyload_19_41
                                   src_reg1.sroa.70.0.copyload_19_42)
                         (= cmp18.not.i_19_49 #b1)
                         (= cmp18.not.i_19_49 #b0))
                    (ite (= cmp16.not.i_19_48 #b1)
                         (= or.cond79.i_19_51 #b1)
                         (= or.cond79.i_19_51 cmp18.not.i_19_49))
                    (ite (bvsgt src_reg1.sroa.52.0.copyload_19_39
                                src_reg1.sroa.59.0.copyload_19_40)
                         (= cmp21.i_19_52 #b1)
                         (= cmp21.i_19_52 #b0))
                    (= or.cond80.i_19_53 (bvor cmp21.i_19_52 or.cond79.i_19_51))
                    (ite (bvugt src_reg1.sroa.62.0.copyload_19_41
                                src_reg1.sroa.70.0.copyload_19_42)
                         (= cmp24.i_19_54 #b1)
                         (= cmp24.i_19_54 #b0))
                    (ite (= or.cond80.i_19_53 #b1)
                         (= or.cond81.i_19_56 #b1)
                         (= or.cond81.i_19_56 cmp24.i_19_54)))))
      (a!10 (=> (and (= or.cond81.i_19_56 #b0) (= tobool.not.i.i_19_47 #b1))
                (and (ite (bvult src_reg1.sroa.45.0.copyload_19_38
                                 #x0000000000000020)
                          (= cmp116.not.i_19_88 #b1)
                          (= cmp116.not.i_19_88 #b0)))))
      (a!11 (=> (= tobool.not.i.i_19_47 #b0)
                (and (ite (bvsgt src_reg1.sroa.52.0.copyload_19_39
                                 src_reg1.sroa.59.0.copyload_19_40)
                          (= cmp21.old.i_19_57 #b1)
                          (= cmp21.old.i_19_57 #b0))
                     (ite (bvugt src_reg1.sroa.62.0.copyload_19_41
                                 src_reg1.sroa.70.0.copyload_19_42)
                          (= cmp24.old.i_19_58 #b1)
                          (= cmp24.old.i_19_58 #b0))
                     (ite (= cmp21.old.i_19_57 #b1)
                          (= or.cond82.i_19_60 #b1)
                          (= or.cond82.i_19_60 cmp24.old.i_19_58))))))
(let ((a!3 (or (and (= cmp.i1.i.i.i_19_187 #b0)
                    (and (= cmp.i.i.i1072.i_19_184 #b1) (or a!1 a!2)))
               (and (= cmp.i.i.i1072.i_19_184 #b0) (or a!1 a!2))))
      (a!4 (and (= cmp.i1.i.i.i_19_187 #b1)
                (and (= cmp.i.i.i1072.i_19_184 #b1) (or a!1 a!2))))
      (a!13 (=> a!1
                (and (= dst_reg_19_4 i11.i762.i_19_100)
                     (= dst_reg_19_5 i13.i764.i_19_101)
                     (= and.i.i.i765.i_19_103
                        (bvand i11.i762.i_19_100 #x00000000ffffffff))
                     (= and6.i.i.i766.i_19_105
                        (bvand i13.i764.i_19_101 #x00000000ffffffff))
                     (= i_19_109
                        (bvand src_reg1.sroa.62.0.copyload_19_41 #x000000ff))
                     (= sh_prom.i.i776.i_19_110 ((_ zero_extend 32) i_19_109))
                     (= shr.i.i777.i_19_111
                        (bvlshr and.i.i.i765.i_19_103 sh_prom.i.i776.i_19_110))
                     (= shr5.i.i778.i_19_112
                        (bvlshr and6.i.i.i766.i_19_105 sh_prom.i.i776.i_19_110))
                     (= dst_reg_19_12 i20.i781.i_19_113)
                     (= shr.i.i_19_114
                        (bvlshr i20.i781.i_19_113
                                src_reg1.sroa.70.0.copyload_19_42))
                     (= dst_reg_19_13 i21.i782.i_19_115)
                     (= shr5.i.i_19_116
                        (bvlshr i21.i782.i_19_115
                                src_reg1.sroa.62.0.copyload_19_41))
                     (= and.i.i797.i_19_122
                        (bvand shr5.i.i778.i_19_112 #x0000000080000000))
                     (= or.i.i798.i_19_123
                        (bvor and.i.i797.i_19_122 shr.i.i777.i_19_111))
                     (= conv.i.i799.i_19_124
                        ((_ extract 31 0) or.i.i798.i_19_123))
                     (= and5.i.i804.i_19_126
                        (bvand shr5.i.i778.i_19_112 #x000000007fffffff))
                     (= or6.i.i805.i_19_127
                        (bvor and5.i.i804.i_19_126 shr.i.i777.i_19_111))
                     (= conv7.i.i806.i_19_128
                        ((_ extract 31 0) or6.i.i805.i_19_127))
                     (= conv17.i.i811.i_19_129
                        ((_ extract 31 0) shr.i.i777.i_19_111))
                     (ite (bvugt shr.i.i_19_114 conv17.i.i811.i_19_129)
                          (= cmp19.i.i812.i_19_130 #b1)
                          (= cmp19.i.i812.i_19_130 #b0))
                     (ite (= cmp19.i.i812.i_19_130 #b1)
                          (= cond24.i.i813.i_19_131 shr.i.i_19_114)
                          (= cond24.i.i813.i_19_131 conv17.i.i811.i_19_129))
                     (= and.i.i.i.i791.i33_19_132
                        (bvor shr5.i.i778.i_19_112 shr.i.i777.i_19_111))
                     (= conv29.i.i817.i_19_133
                        ((_ extract 31 0) and.i.i.i.i791.i33_19_132))
                     (ite (bvult shr5.i.i_19_116 conv29.i.i817.i_19_133)
                          (= cmp31.i.i818.i_19_134 #b1)
                          (= cmp31.i.i818.i_19_134 #b0))
                     (ite (= cmp31.i.i818.i_19_134 #b1)
                          (= cond36.i.i819.i_19_135 shr5.i.i_19_116)
                          (= cond36.i.i819.i_19_135 conv29.i.i817.i_19_133)))))
      (a!14 (and (= dst_reg_19_140 i4.i.i_19_172)
                 (= dst_reg_19_141 i6.i1058.i_19_173)
                 (= and.i.i.i1059.i_19_175
                    (bvand i4.i.i_19_172 #x00000000ffffffff))
                 (= and6.i.i.i1060.i_19_177
                    (bvand i6.i1058.i_19_173 #x00000000ffffffff))
                 (= dst_reg_19_148 i.i.i1064.i_19_178)
                 (= conv.i.i1065.i_19_179
                    ((_ zero_extend 32) i.i.i1064.i_19_178))
                 (= dst_reg_19_149 i12.i.i1068.i_19_180)
                 (= conv1.i.i.i_19_181
                    ((_ zero_extend 32) i12.i.i1068.i_19_180))
                 (= dst_reg_19_146 i13.i.i1071.i_19_182)
                 (ite (bvsgt i13.i.i1071.i_19_182 #xffffffff)
                      (= cmp.i.i.i1072.i_19_184 #b1)
                      (= cmp.i.i.i1072.i_19_184 #b0))
                 (=> a!1
                     (and (= #x00000001 src_reg_19_154)
                          (= src_reg_19_19 src_reg_19_155)
                          (= src_reg_19_20 src_reg_19_156)
                          (= src_reg_19_21 src_reg_19_157)
                          (= src_reg_19_22 src_reg_19_158)
                          (= src_reg_19_23 src_reg_19_159)
                          (= src_reg_19_24 src_reg_19_160)
                          (= src_reg_19_25 src_reg_19_161)
                          (= src_reg_19_26 src_reg_19_162)
                          (= src_reg_19_27 src_reg_19_163)
                          (= src_reg_19_28 src_reg_19_164)
                          (= src_reg_19_29 src_reg_19_165)
                          (= src_reg_19_30 src_reg_19_166)
                          (= src_reg_19_31 src_reg_19_167)
                          (= src_reg_19_32 src_reg_19_168)
                          (= src_reg_19_33 src_reg_19_169)
                          (= src_reg_19_34 src_reg_19_170)
                          (= src_reg_19_35 src_reg_19_171)
                          (= #x00000001 dst_reg_19_136)
                          (= dst_reg_19_1 dst_reg_19_137)
                          (= dst_reg_19_2 dst_reg_19_138)
                          (= dst_reg_19_3 dst_reg_19_139)
                          (= shr.i.i777.i_19_111 dst_reg_19_140)
                          (= shr5.i.i778.i_19_112 dst_reg_19_141)
                          (= #x8000000000000000 dst_reg_19_142)
                          (= #x7fffffffffffffff dst_reg_19_143)
                          (= #x0000000000000000 dst_reg_19_144)
                          (= #xffffffffffffffff dst_reg_19_145)
                          (= conv.i.i799.i_19_124 dst_reg_19_146)
                          (= conv7.i.i806.i_19_128 dst_reg_19_147)
                          (= cond24.i.i813.i_19_131 dst_reg_19_148)
                          (= cond36.i.i819.i_19_135 dst_reg_19_149)
                          (= dst_reg_19_14 dst_reg_19_150)
                          (= dst_reg_19_15 dst_reg_19_151)
                          (= dst_reg_19_16 dst_reg_19_152)
                          (= dst_reg_19_17 dst_reg_19_153)))
                 (=> a!2
                     (and (= #x00000001 src_reg_19_154)
                          (= src_reg_19_19 src_reg_19_155)
                          (= src_reg_19_20 src_reg_19_156)
                          (= src_reg_19_21 src_reg_19_157)
                          (= src_reg_19_22 src_reg_19_158)
                          (= src_reg_19_23 src_reg_19_159)
                          (= src_reg_19_24 src_reg_19_160)
                          (= src_reg_19_25 src_reg_19_161)
                          (= src_reg_19_26 src_reg_19_162)
                          (= src_reg_19_27 src_reg_19_163)
                          (= src_reg_19_28 src_reg_19_164)
                          (= src_reg_19_29 src_reg_19_165)
                          (= src_reg_19_30 src_reg_19_166)
                          (= src_reg_19_31 src_reg_19_167)
                          (= src_reg_19_32 src_reg_19_168)
                          (= src_reg_19_33 src_reg_19_169)
                          (= src_reg_19_34 src_reg_19_170)
                          (= src_reg_19_35 src_reg_19_171)
                          (= #x00000001 dst_reg_19_136)
                          (= dst_reg_19_1 dst_reg_19_137)
                          (= dst_reg_19_2 dst_reg_19_138)
                          (= dst_reg_19_3 dst_reg_19_139)
                          (= #x0000000000000000 dst_reg_19_140)
                          (= #xffffffffffffffff dst_reg_19_141)
                          (= #x8000000000000000 dst_reg_19_142)
                          (= #x7fffffffffffffff dst_reg_19_143)
                          (= #x0000000000000000 dst_reg_19_144)
                          (= #xffffffffffffffff dst_reg_19_145)
                          (= #x80000000 dst_reg_19_146)
                          (= #x7fffffff dst_reg_19_147)
                          (= #x00000000 dst_reg_19_148)
                          (= #xffffffff dst_reg_19_149)
                          (= dst_reg_19_14 dst_reg_19_150)
                          (= dst_reg_19_15 dst_reg_19_151)
                          (= dst_reg_19_16 dst_reg_19_152)
                          (= dst_reg_19_17 dst_reg_19_153)))))
      (a!15 (=> (and (= cmp.i.i.i1072.i_19_184 #b1) (or a!1 a!2))
                (and (= dst_reg_19_147 i14.i.i.i_19_185)
                     (ite (bvsgt i14.i.i.i_19_185 #xffffffff)
                          (= cmp.i1.i.i.i_19_187 #b1)
                          (= cmp.i1.i.i.i_19_187 #b0))))))
(let ((a!7 (and (=> (or a!3 a!4)
                    (and (= src_reg_19_209 src_reg_19_249)
                         (= src_reg_19_210 src_reg_19_250)
                         (= src_reg_19_211 src_reg_19_251)
                         (= src_reg_19_212 src_reg_19_252)
                         (= src_reg_19_213 src_reg_19_253)
                         (= src_reg_19_214 src_reg_19_254)
                         (= src_reg_19_215 src_reg_19_255)
                         (= src_reg_19_216 src_reg_19_256)
                         (= src_reg_19_217 src_reg_19_257)
                         (= src_reg_19_218 src_reg_19_258)
                         (= src_reg_19_219 src_reg_19_259)
                         (= src_reg_19_220 src_reg_19_260)
                         (= src_reg_19_221 src_reg_19_261)
                         (= src_reg_19_222 src_reg_19_262)
                         (= src_reg_19_223 src_reg_19_263)
                         (= src_reg_19_224 src_reg_19_264)
                         (= src_reg_19_225 src_reg_19_265)
                         (= src_reg_19_226 src_reg_19_266)
                         (= dst_reg_19_191 dst_reg_19_231)
                         (= dst_reg_19_192 dst_reg_19_232)
                         (= dst_reg_19_193 dst_reg_19_233)
                         (= dst_reg_19_194 dst_reg_19_234)
                         (= dst_reg_19_195 dst_reg_19_235)
                         (= dst_reg_19_196 dst_reg_19_236)
                         (= dst_reg_19_197 dst_reg_19_237)
                         (= .sink.i.i1077.i_19_229 dst_reg_19_238)
                         (= dst_reg_19_199 dst_reg_19_239)
                         (= dst_reg_19_200 dst_reg_19_240)
                         (= dst_reg_19_201 dst_reg_19_241)
                         (= dst_reg_19_202 dst_reg_19_242)
                         (= dst_reg_19_203 dst_reg_19_243)
                         (= dst_reg_19_204 dst_reg_19_244)
                         (= dst_reg_19_205 dst_reg_19_245)
                         (= dst_reg_19_206 dst_reg_19_246)
                         (= dst_reg_19_207 dst_reg_19_247)
                         (= dst_reg_19_208 dst_reg_19_248)))
                (=> a!5 a!6)
                (=> (and (= or.cond82.i_19_60 #b0) (= tobool.not.i.i_19_47 #b0))
                    a!6)
                (= dst_reg_19_231 dst_reg_19_267)
                (= dst_reg_19_232 dst_reg_19_268)
                (= dst_reg_19_233 dst_reg_19_269)
                (= dst_reg_19_234 dst_reg_19_270)
                (= dst_reg_19_235 dst_reg_19_271)
                (= dst_reg_19_236 dst_reg_19_272)
                (= dst_reg_19_237 dst_reg_19_273)
                (= dst_reg_19_238 dst_reg_19_274)
                (= dst_reg_19_239 dst_reg_19_275)
                (= dst_reg_19_240 dst_reg_19_276)
                (= dst_reg_19_241 dst_reg_19_277)
                (= dst_reg_19_242 dst_reg_19_278)
                (= dst_reg_19_243 dst_reg_19_279)
                (= dst_reg_19_244 dst_reg_19_280)
                (= dst_reg_19_245 dst_reg_19_281)
                (= dst_reg_19_246 dst_reg_19_282)
                (= dst_reg_19_247 dst_reg_19_283)
                (= dst_reg_19_248 dst_reg_19_284)
                (= src_reg_19_249 src_reg_19_285)
                (= src_reg_19_250 src_reg_19_286)
                (= src_reg_19_251 src_reg_19_287)
                (= src_reg_19_252 src_reg_19_288)
                (= src_reg_19_253 src_reg_19_289)
                (= src_reg_19_254 src_reg_19_290)
                (= src_reg_19_255 src_reg_19_291)
                (= src_reg_19_256 src_reg_19_292)
                (= src_reg_19_257 src_reg_19_293)
                (= src_reg_19_258 src_reg_19_294)
                (= src_reg_19_259 src_reg_19_295)
                (= src_reg_19_260 src_reg_19_296)
                (= src_reg_19_261 src_reg_19_297)
                (= src_reg_19_262 src_reg_19_298)
                (= src_reg_19_263 src_reg_19_299)
                (= src_reg_19_264 src_reg_19_300)
                (= src_reg_19_265 src_reg_19_301)
                (= src_reg_19_266 src_reg_19_302)))
      (a!12 (=> a!4
                (and (= conv6.i.i.i_19_188
                        ((_ sign_extend 32) i13.i.i1071.i_19_182))
                     (= conv8.i.i.i_19_189
                        ((_ sign_extend 32) i14.i.i.i_19_185)))))
      (a!16 (and (=> if.else.i.i1076.i_zext_32_to_64.exit.i_19_227
                     (= .sink.i.i1077.i_19_229 #x00000000ffffffff))
                 (=> if.then.i.i1075.i_zext_32_to_64.exit.i_19_228
                     (= .sink.i.i1077.i_19_229 conv8.i.i.i_19_189))
                 (=> a!4
                     (and (= src_reg_19_154 src_reg_19_209)
                          (= src_reg_19_155 src_reg_19_210)
                          (= src_reg_19_156 src_reg_19_211)
                          (= src_reg_19_157 src_reg_19_212)
                          (= src_reg_19_158 src_reg_19_213)
                          (= src_reg_19_159 src_reg_19_214)
                          (= src_reg_19_160 src_reg_19_215)
                          (= src_reg_19_161 src_reg_19_216)
                          (= src_reg_19_162 src_reg_19_217)
                          (= src_reg_19_163 src_reg_19_218)
                          (= src_reg_19_164 src_reg_19_219)
                          (= src_reg_19_165 src_reg_19_220)
                          (= src_reg_19_166 src_reg_19_221)
                          (= src_reg_19_167 src_reg_19_222)
                          (= src_reg_19_168 src_reg_19_223)
                          (= src_reg_19_169 src_reg_19_224)
                          (= src_reg_19_170 src_reg_19_225)
                          (= src_reg_19_171 src_reg_19_226)
                          (= dst_reg_19_136 dst_reg_19_191)
                          (= dst_reg_19_137 dst_reg_19_192)
                          (= dst_reg_19_138 dst_reg_19_193)
                          (= dst_reg_19_139 dst_reg_19_194)
                          (= and.i.i.i1059.i_19_175 dst_reg_19_195)
                          (= and6.i.i.i1060.i_19_177 dst_reg_19_196)
                          (= conv6.i.i.i_19_188 dst_reg_19_197)
                          (= dst_reg_19_143 dst_reg_19_198)
                          (= conv.i.i1065.i_19_179 dst_reg_19_199)
                          (= conv1.i.i.i_19_181 dst_reg_19_200)
                          (= dst_reg_19_146 dst_reg_19_201)
                          (= dst_reg_19_147 dst_reg_19_202)
                          (= dst_reg_19_148 dst_reg_19_203)
                          (= dst_reg_19_149 dst_reg_19_204)
                          (= dst_reg_19_150 dst_reg_19_205)
                          (= dst_reg_19_151 dst_reg_19_206)
                          (= dst_reg_19_152 dst_reg_19_207)
                          (= dst_reg_19_153 dst_reg_19_208)))
                 (=> a!3
                     (and (= src_reg_19_154 src_reg_19_209)
                          (= src_reg_19_155 src_reg_19_210)
                          (= src_reg_19_156 src_reg_19_211)
                          (= src_reg_19_157 src_reg_19_212)
                          (= src_reg_19_158 src_reg_19_213)
                          (= src_reg_19_159 src_reg_19_214)
                          (= src_reg_19_160 src_reg_19_215)
                          (= src_reg_19_161 src_reg_19_216)
                          (= src_reg_19_162 src_reg_19_217)
                          (= src_reg_19_163 src_reg_19_218)
                          (= src_reg_19_164 src_reg_19_219)
                          (= src_reg_19_165 src_reg_19_220)
                          (= src_reg_19_166 src_reg_19_221)
                          (= src_reg_19_167 src_reg_19_222)
                          (= src_reg_19_168 src_reg_19_223)
                          (= src_reg_19_169 src_reg_19_224)
                          (= src_reg_19_170 src_reg_19_225)
                          (= src_reg_19_171 src_reg_19_226)
                          (= dst_reg_19_136 dst_reg_19_191)
                          (= dst_reg_19_137 dst_reg_19_192)
                          (= dst_reg_19_138 dst_reg_19_193)
                          (= dst_reg_19_139 dst_reg_19_194)
                          (= and.i.i.i1059.i_19_175 dst_reg_19_195)
                          (= and6.i.i.i1060.i_19_177 dst_reg_19_196)
                          (= #x0000000000000000 dst_reg_19_197)
                          (= dst_reg_19_143 dst_reg_19_198)
                          (= conv.i.i1065.i_19_179 dst_reg_19_199)
                          (= conv1.i.i.i_19_181 dst_reg_19_200)
                          (= dst_reg_19_146 dst_reg_19_201)
                          (= dst_reg_19_147 dst_reg_19_202)
                          (= dst_reg_19_148 dst_reg_19_203)
                          (= dst_reg_19_149 dst_reg_19_204)
                          (= dst_reg_19_150 dst_reg_19_205)
                          (= dst_reg_19_151 dst_reg_19_206)
                          (= dst_reg_19_152 dst_reg_19_207)
                          (= dst_reg_19_153 dst_reg_19_208)))
                 (= if.else.i.i1076.i_zext_32_to_64.exit.i_19_227 a!3)
                 (= if.then.i.i1075.i_zext_32_to_64.exit.i_19_228 a!4))))
(let ((a!8 (=> (or (or a!3 a!4)
                   (and (= or.cond82.i_19_60 #b0) (= tobool.not.i.i_19_47 #b0))
                   a!5)
               a!7)))
  (and a!8
       a!9
       a!10
       a!11
       a!12
       a!13
       (=> (or a!1 a!2) a!14)
       (= dst_reg_19_0 dst_reg_19_0)
       (= dst_reg_19_1 dst_reg_19_1)
       (= dst_reg_19_2 dst_reg_19_2)
       (= dst_reg_19_3 dst_reg_19_3)
       (= dst_reg_19_4 dst_reg_19_4)
       (= dst_reg_19_5 dst_reg_19_5)
       (= dst_reg_19_6 dst_reg_19_6)
       (= dst_reg_19_7 dst_reg_19_7)
       (= dst_reg_19_8 dst_reg_19_8)
       (= dst_reg_19_9 dst_reg_19_9)
       (= dst_reg_19_10 dst_reg_19_10)
       (= dst_reg_19_11 dst_reg_19_11)
       (= dst_reg_19_12 dst_reg_19_12)
       (= dst_reg_19_13 dst_reg_19_13)
       (= dst_reg_19_14 dst_reg_19_14)
       (= dst_reg_19_15 dst_reg_19_15)
       (= dst_reg_19_16 dst_reg_19_16)
       (= dst_reg_19_17 dst_reg_19_17)
       (= src_reg_19_18 src_reg_19_18)
       (= src_reg_19_19 src_reg_19_19)
       (= src_reg_19_20 src_reg_19_20)
       (= src_reg_19_21 src_reg_19_21)
       (= src_reg_19_22 src_reg_19_22)
       (= src_reg_19_23 src_reg_19_23)
       (= src_reg_19_24 src_reg_19_24)
       (= src_reg_19_25 src_reg_19_25)
       (= src_reg_19_26 src_reg_19_26)
       (= src_reg_19_27 src_reg_19_27)
       (= src_reg_19_28 src_reg_19_28)
       (= src_reg_19_29 src_reg_19_29)
       (= src_reg_19_30 src_reg_19_30)
       (= src_reg_19_31 src_reg_19_31)
       (= src_reg_19_32 src_reg_19_32)
       (= src_reg_19_33 src_reg_19_33)
       (= src_reg_19_34 src_reg_19_34)
       (= src_reg_19_35 src_reg_19_35)
       (= src_reg_19_27 src_reg1.sroa.45.0.copyload_19_38)
       (= src_reg_19_28 src_reg1.sroa.52.0.copyload_19_39)
       (= src_reg_19_29 src_reg1.sroa.59.0.copyload_19_40)
       (= src_reg_19_30 src_reg1.sroa.62.0.copyload_19_41)
       (= src_reg_19_31 src_reg1.sroa.70.0.copyload_19_42)
       (= src_reg_19_23 src_reg1.sroa.13.0.copyload_19_43)
       (= and6.i.i.i.i_19_45
          (bvand src_reg1.sroa.13.0.copyload_19_43 #x00000000ffffffff))
       (ite (= and6.i.i.i.i_19_45 #x0000000000000000)
            (= tobool.not.i.i_19_47 #b1)
            (= tobool.not.i.i_19_47 #b0))
       a!15
       (=> (or a!3 a!4) a!16)))))))

;{"dst_reg":["dst_reg_19_0","dst_reg_19_1",[""],"dst_reg_19_2","dst_reg_19_3",["dst_reg_19_4","dst_reg_19_5"],"dst_reg_19_6","dst_reg_19_7","dst_reg_19_8","dst_reg_19_9","dst_reg_19_10","dst_reg_19_11","dst_reg_19_12","dst_reg_19_13","","","dst_reg_19_14","dst_reg_19_15","dst_reg_19_16"],"src_reg":["src_reg_19_18","src_reg_19_19",[""],"src_reg_19_20","src_reg_19_21",["src_reg_19_22","src_reg_19_23"],"src_reg_19_24","src_reg_19_25","src_reg_19_26","src_reg_19_27","src_reg_19_28","src_reg_19_29","src_reg_19_30","src_reg_19_31","","","src_reg_19_32","src_reg_19_33","src_reg_19_34"]}
;{"dst_reg":["dst_reg_19_267","dst_reg_19_268",[""],"dst_reg_19_269","dst_reg_19_270",["dst_reg_19_271","dst_reg_19_272"],"dst_reg_19_273","dst_reg_19_274","dst_reg_19_275","dst_reg_19_276","dst_reg_19_277","dst_reg_19_278","dst_reg_19_279","dst_reg_19_280","","","dst_reg_19_281","dst_reg_19_282","dst_reg_19_283"],"src_reg":["src_reg_19_285","src_reg_19_286",[""],"src_reg_19_287","src_reg_19_288",["src_reg_19_289","src_reg_19_290"],"src_reg_19_291","src_reg_19_292","src_reg_19_293","src_reg_19_294","src_reg_19_295","src_reg_19_296","src_reg_19_297","src_reg_19_298","","","src_reg_19_299","src_reg_19_300","src_reg_19_301"]}
